#######################



#######################
Set parameter TimeLimit to value 500
Set parameter SoftMemLimit to value 125
Set parameter LogFile to value 1202-TimeLimit500-k16x240-1.log
Set parameter Seed to value 11
Using license file /opt/gurobi/gurobi.lic

Gurobi Optimizer version 12.0.2 build v12.0.2rc0 (linux64 - "Ubuntu 22.04.4 LTS")
Copyright (c) 2025, Gurobi Optimization, LLC

Read MPS format model from file /miplib2010/k16x240.mps.bz2
Reading time = 0.00 seconds
k16x240: 256 rows, 480 columns, 960 nonzeros

Using Gurobi shared library /nfs/shared/static-builds/gurobi1202

CPU model: Intel(R) Xeon(R) E-2388G CPU @ 3.20GHz, instruction set [SSE2|AVX|AVX2|AVX512]
Thread count: 8 physical cores, 16 logical processors, using up to 16 threads

Non-default parameters:
TimeLimit  500
SoftMemLimit  125
Seed  11

Optimize a model with 256 rows, 480 columns and 960 nonzeros
Model fingerprint: 0x4e80885f
Variable types: 240 continuous, 240 integer (240 binary)
Coefficient statistics:
  Matrix range     [1e+00, 1e+03]
  Objective range  [1e+00, 1e+03]
  Bounds range     [1e+00, 1e+03]
  RHS range        [4e+00, 4e+02]
Found heuristic solution: objective 24175.000000
Presolve time: 0.00s
Presolved: 256 rows, 480 columns, 960 nonzeros
Variable types: 240 continuous, 240 integer (240 binary)

Root relaxation: objective 2.769838e+03, 51 iterations, 0.00 seconds (0.00 work units)

    Nodes    |    Current Node    |     Objective Bounds      |     Work
 Expl Unexpl |  Obj  Depth IntInf | Incumbent    BestBd   Gap | It/Node Time

     0     0 2769.83800    0   14 24175.0000 2769.83800  88.5%     -    0s
H    0     0                    11359.000000 2769.83800  75.6%     -    0s
H    0     0                    11195.000000 2769.83800  75.3%     -    0s
H    0     0                    11088.000000 2769.83800  75.0%     -    0s
H    0     0                    11074.000000 8084.69631  27.0%     -    0s
     0     0 8084.69631    0   26 11074.0000 8084.69631  27.0%     -    0s
H    0     0                    10916.000000 8126.71248  25.6%     -    0s
     0     0 8528.16906    0   24 10916.0000 8528.16906  21.9%     -    0s
H    0     0                    10896.000000 8539.49533  21.6%     -    0s
     0     0 8539.49533    0   34 10896.0000 8539.49533  21.6%     -    0s
     0     0 8548.03675    0   29 10896.0000 8548.03675  21.5%     -    0s
H    0     0                    10806.000000 8548.03675  20.9%     -    0s
H    0     0                    10779.000000 8739.20556  18.9%     -    0s
     0     0 8739.20556    0   38 10779.0000 8739.20556  18.9%     -    0s
H    0     0                    10758.000000 8745.55182  18.7%     -    0s
H    0     0                    10732.000000 8745.55182  18.5%     -    0s
H    0     0                    10717.000000 8745.55182  18.4%     -    0s
     0     0 8805.66840    0   29 10717.0000 8805.66840  17.8%     -    0s
     0     0 8815.00598    0   31 10717.0000 8815.00598  17.7%     -    0s
     0     0 8817.96662    0   29 10717.0000 8817.96662  17.7%     -    0s
     0     0 9010.31403    0   35 10717.0000 9010.31403  15.9%     -    0s
     0     0 9019.58503    0   36 10717.0000 9019.58503  15.8%     -    0s
     0     0 9031.82911    0   40 10717.0000 9031.82911  15.7%     -    0s
     0     0 9033.58230    0   37 10717.0000 9033.58230  15.7%     -    0s
     0     0 9056.17275    0   35 10717.0000 9056.17275  15.5%     -    0s
     0     0 9056.23227    0   35 10717.0000 9056.23227  15.5%     -    0s
H    0     0                    10678.000000 9056.23227  15.2%     -    0s
     0     2 9056.23227    0   35 10678.0000 9056.23227  15.2%     -    0s
H  138   144                    10674.000000 9174.74898  14.0%  28.1    0s
 35470 12092 10500.3490   32   11 10674.0000 10049.5288  5.85%  24.8    5s
 69066 15862 10305.2966   27   22 10674.0000 10218.0078  4.27%  26.0   10s
 108827  9923     cutoff   41      10674.0000 10413.5228  2.44%  26.5   15s

Cutting planes:
  Lift-and-project: 16
  Cover: 77
  Implied bound: 24
  Dual implied bound: 33
  MIR: 181
  Flow cover: 312
  Flow path: 43
  Zero half: 9
  Network: 61

Explored 127729 nodes (3203823 simplex iterations) in 16.91 seconds (22.33 work units)
Thread count was 16 (of 16 available processors)

Solution count 10: 10674 10678 10717 ... 11074

Optimal solution found (tolerance 1.00e-04)
Best objective 1.067400000000e+04, best bound 1.067400000000e+04, gap 0.0000%
